p cnf 150 180
102 -25 -9 0
-56 -7 -74 0
-131 98 -53 0
-11 30 8 0
141 -10 2 0
-22 -46 -104 0
98 -24 71 0
47 30 -70 0
-70 -131 103 0
70 -140 44 0
-144 -30 -124 0
19 -140 5 0
-49 -40 -4 0
-143 -26 76 0
80 30 15 0
-72 -58 -148 0
-5 -37 74 0
-135 -71 -111 0
-80 99 31 0
61 -74 -75 0
14 -57 74 0
-52 -40 76 0
-138 -75 100 0
-114 36 144 0
140 -146 87 0
-122 31 -30 0
45 46 140 0
6 145 -19 0
99 143 -141 0
-23 18 85 0
114 -110 9 0
-54 48 -78 0
-64 85 19 0
-126 79 -119 0
-45 -120 68 0
-113 -101 108 0
146 140 -141 0
-10 -143 75 0
-44 66 -15 0
-120 148 -118 0
9 66 -93 0
-134 120 -130 0
-7 39 112 0
-101 -131 -56 0
25 -5 145 0
8 -68 -56 0
33 53 63 0
127 -61 57 0
-24 116 36 0
-52 72 144 0
143 -42 37 0
130 -40 99 0
-108 -73 77 0
-59 72 -26 0
-58 -102 75 0
-43 89 122 0
-46 -19 117 0
95 88 -11 0
91 140 47 0
-70 -55 -150 0
-132 27 -101 0
109 89 -22 0
107 -51 -16 0
34 142 89 0
88 -146 -138 0
4 8 20 0
-38 -121 103 0
48 -22 79 0
84 -99 19 0
-117 -32 73 0
110 10 20 0
-10 -26 134 0
-117 29 101 0
19 28 -122 0
84 -122 -146 0
95 -148 89 0
-44 38 -62 0
-125 -132 87 0
-55 -25 -77 0
95 -41 -53 0
-129 -147 -28 0
127 95 107 0
-96 -68 20 0
123 74 -148 0
-150 49 -3 0
-90 -88 58 0
52 31 60 0
91 -44 48 0
80 -27 -99 0
-78 -88 -27 0
19 -103 42 0
-49 73 -123 0
-140 120 -118 0
141 -140 -115 0
12 -83 35 0
112 -95 52 0
28 -98 -36 0
-125 -66 104 0
22 -110 112 0
-32 127 81 0
-97 77 118 0
-112 125 54 0
-44 17 40 0
-138 -56 -108 0
109 -14 -87 0
-117 60 -67 0
-25 -48 -11 0
-63 -150 -102 0
45 -116 -7 0
-108 77 97 0
-22 60 -78 0
-27 148 -13 0
-27 43 129 0
-141 62 136 0
93 33 67 0
31 -58 83 0
12 78 71 0
44 -132 19 0
-36 -55 -108 0
78 -141 -68 0
87 -5 -125 0
134 -116 -121 0
37 -106 -97 0
-139 -113 -67 0
13 118 -47 0
142 54 -23 0
24 -97 114 0
78 -101 80 0
-3 -110 -83 0
1 -101 -100 0
47 -31 -92 0
-31 99 -12 0
129 32 12 0
17 -126 30 0
36 129 24 0
-45 72 -66 0
98 86 -43 0
-83 96 -91 0
87 -29 -113 0
68 -32 -99 0
45 122 -141 0
-126 59 119 0
13 -50 -33 0
-50 30 -96 0
-30 15 -55 0
54 59 68 0
53 -72 -133 0
50 45 87 0
-4 122 73 0
54 -37 -25 0
x 1 2 -4 5 7 9 11 13 -14 -15 -16 17 -18 22 25 -27 -29 -30 32 35 36 37 -44 46 -48 -49 -52 -53 54 55 -59 -60 62 -66 71 -73 -78 79 80 -84 -85 -86 -89 -90 91 -92 -96 97 -103 104 105 106 107 108 -111 116 -117 118 -121 -123 -126 128 129 -133 134 -135 136 -137 -138 142 143 -145 -148 -149 0
x -1 2 5 -6 -8 -10 11 -12 -13 14 -20 -21 -23 24 -25 27 -28 -31 -32 -33 34 36 38 40 -41 42 44 46 -48 -50 -51 -52 55 56 57 -58 59 -63 64 68 69 70 -71 -72 73 75 78 -79 80 -81 -85 -88 -91 -97 -99 -102 -105 106 -108 -109 110 111 112 113 114 -115 119 120 121 -122 -123 124 -126 127 128 -129 -130 -131 -132 135 -136 -139 -142 -145 147 0
x -1 5 8 10 -11 12 -14 15 16 17 18 -20 22 23 -24 -28 30 -31 32 -33 -36 39 -40 41 -43 46 -50 -51 -56 -58 59 -60 -61 -62 65 -67 -68 69 70 72 -73 74 75 -76 77 80 81 -82 -86 -87 91 94 96 100 -101 105 106 -109 -113 118 119 120 -121 -124 -131 132 -133 -134 -135 -137 143 149 -150 0
x -1 -3 4 5 6 -8 -10 -11 -12 13 -14 -15 -17 19 20 -21 -25 -27 28 29 30 31 -32 33 34 -36 38 -41 43 -45 -47 50 -51 54 55 56 57 58 -59 -60 61 62 -63 65 -66 -68 69 -71 73 -74 75 -76 -77 78 -79 80 -81 82 -85 86 88 -89 -91 99 -103 104 105 106 -107 -108 -109 111 112 113 118 -122 123 -124 -127 -128 -129 -131 -135 136 -137 -138 -146 147 148 149 0
x -3 4 -5 -6 7 8 -9 13 14 15 -16 17 18 -20 -21 -22 -23 25 -26 27 29 32 34 -36 37 38 -40 -44 -45 -47 48 -50 -52 54 -55 -59 -60 61 -63 65 -67 -70 -72 -76 79 80 82 84 -86 88 89 -96 99 -100 101 102 107 -113 -114 -115 -119 120 -121 123 -125 127 -133 134 -135 140 -142 -146 148 150 0
x -1 -2 -5 -6 -7 -8 10 11 13 14 20 21 -22 -23 25 -26 -27 -28 31 34 40 -42 44 -46 49 -50 53 55 56 60 -63 -64 -65 -68 69 -73 74 75 78 79 81 -84 -85 87 -88 -89 91 93 -94 97 99 -102 -104 -110 -112 -119 -120 121 -122 -124 -125 126 -127 128 -129 -132 -133 -136 137 -140 -141 142 -143 -145 -146 147 -148 -149 0
x 1 3 4 6 8 -10 13 -18 19 -23 24 25 -27 28 30 -31 -32 -35 -36 -37 -38 39 -41 42 -43 49 -50 51 -57 -59 -61 -62 65 66 67 68 69 70 -74 -78 79 80 84 -85 86 -88 89 90 -91 -93 -94 95 -102 -104 108 -109 -110 111 117 -122 124 125 -127 130 -131 -135 136 137 139 -141 142 144 148 0
x 1 -2 3 4 -7 9 -10 11 12 -13 -16 17 -18 19 -20 21 -22 -23 -24 25 27 -28 29 -30 -31 32 33 35 38 -41 42 46 -52 55 56 -57 59 -64 66 67 77 78 81 82 -87 -88 92 94 -95 -97 -98 99 100 103 106 -107 109 110 -112 -114 115 -116 -118 121 -124 127 129 130 131 133 -134 -135 -137 -138 -139 -140 142 -143 -144 145 146 0
x -4 -6 -10 11 12 -13 14 -15 -16 -20 22 -23 -29 -30 31 32 36 -37 -38 40 42 -43 45 -46 47 -52 -53 -54 55 60 62 -64 69 70 -75 76 -77 -81 -87 88 90 91 95 -96 -99 100 104 106 -111 116 -117 120 122 -124 -125 -126 127 128 130 131 -132 133 -134 -136 -137 -138 139 141 143 -144 -145 147 -150 0
x -1 -3 9 -10 12 13 14 16 -19 20 -21 -22 25 -30 31 32 34 36 38 40 -44 45 46 -47 -48 50 -53 -56 57 -60 61 62 64 -65 -66 67 68 70 -71 -72 78 79 80 82 83 85 86 87 -88 89 -92 94 95 96 98 -101 104 106 -107 -109 113 -115 117 -119 -120 124 -125 126 127 133 -134 136 137 -139 140 142 -143 146 -150 0
x 3 -4 5 -6 8 -10 -11 -14 -17 -19 -20 22 -25 26 -29 -30 -34 37 38 -39 -40 42 43 45 48 51 54 -55 -56 57 -58 59 60 -62 63 -65 -68 -73 75 -77 -81 -84 86 89 -93 98 -104 105 -106 -107 -108 -111 -116 119 -124 -126 127 -128 -129 -131 -133 134 -135 -136 137 140 -141 -144 -145 149 0
x 1 -7 9 10 -16 20 21 -23 24 25 -26 36 -37 -40 41 47 48 50 51 -61 62 -63 -64 -66 67 69 70 -72 -77 -79 80 -81 83 -84 85 87 89 -90 -91 -92 -96 -97 -99 -102 103 108 109 110 113 114 116 -118 121 125 128 131 -133 -135 136 -139 141 -142 143 145 146 0
x 6 8 -9 -10 -15 16 -20 24 -25 28 29 -30 -33 36 37 40 -42 -44 -45 46 -47 49 -50 -51 53 56 58 59 -61 62 -63 -67 -68 -75 -77 -78 80 -82 85 87 88 95 -96 97 101 102 105 110 -111 113 114 116 -117 119 -124 126 -129 135 136 -137 138 -140 -141 -142 -145 -146 149 0
x -4 -5 -6 7 -8 -12 13 -20 -21 24 25 26 33 -34 39 -40 44 -47 -48 49 -52 54 57 58 -61 63 -64 65 -68 -72 73 -75 -76 -78 80 84 86 -87 91 92 93 94 96 -97 99 -100 102 103 108 -109 -112 -113 118 -120 -122 -126 127 -128 -130 -131 132 134 137 138 -140 145 146 148 -149 0
x 3 5 6 -8 15 17 18 19 20 27 -30 -37 38 -39 40 -44 -50 -51 -52 53 57 -59 60 -62 -63 -68 72 -73 78 -81 82 83 89 -91 -94 -95 -98 -99 -100 -101 103 -104 -106 107 109 110 114 116 117 -118 119 120 123 125 128 131 -136 138 -140 -141 -144 145 -150 0
x -2 -3 7 -8 -9 12 13 15 -16 -19 -20 -21 -29 -30 32 37 38 -39 -44 45 -52 53 54 56 57 59 -60 61 62 -63 65 67 70 71 72 -73 75 -76 78 80 -81 -85 -89 90 -92 -94 -95 -98 99 101 104 -107 -108 -110 112 113 -116 -119 120 121 122 -123 -126 -127 -129 -131 -132 -133 -134 -136 140 -141 142 143 -145 -147 148 0
x 5 -6 7 11 -12 -17 21 -22 23 24 25 -37 -38 40 -41 44 -45 -46 -47 55 56 -57 -64 65 66 67 69 70 -72 75 -76 78 80 82 -85 86 88 89 -93 95 97 -99 100 -101 103 -105 106 107 108 -109 111 -114 -116 119 120 123 -125 -130 -131 132 -134 135 -136 -138 140 -143 145 146 150 0
x 1 4 -5 6 -8 9 -11 -12 16 18 -19 20 21 -22 30 -31 -33 -34 35 38 -40 42 -43 46 -52 -54 58 63 66 67 69 -70 -71 -72 -74 75 78 -80 -83 -84 -85 -86 89 91 -92 -94 -95 -98 -99 100 105 -106 -107 108 110 -113 114 -116 117 -122 123 -124 -127 -128 132 133 139 -141 142 -144 -146 147 148 -150 0
x 2 -3 -4 5 9 15 -18 -19 22 -23 25 26 27 -28 31 32 -33 -34 35 38 41 -42 -44 -47 -51 -52 -56 -61 64 65 66 -70 -74 -80 -84 86 -87 -92 -95 -97 99 101 -102 103 -104 -106 -107 -108 109 -111 -113 -115 116 121 -122 -123 -124 126 127 -128 -131 -132 -134 137 -138 140 -141 -146 148 -149 150 0
x -4 5 6 -7 8 -10 11 12 -15 17 -18 -19 -20 21 23 27 28 29 30 31 33 34 35 -37 -38 -39 -42 -43 46 -48 49 50 -51 -55 -56 -61 -62 -63 -65 66 68 -71 -73 74 -75 -78 -79 83 88 -89 90 91 93 95 -96 -97 -98 99 101 103 104 108 112 -113 114 -119 -121 122 -125 127 129 131 -133 135 -136 -138 140 141 142 145 146 147 148 -149 150 0
x -2 -7 10 12 -13 -14 -16 17 18 19 25 -28 -29 -30 -33 -35 -38 -42 -43 46 47 48 49 55 56 -58 -61 -63 64 65 68 73 76 -84 87 88 -89 -90 94 -95 -96 -98 -99 100 -101 105 110 113 115 116 118 119 124 128 132 136 -139 -141 -143 -145 -147 149 150 0
x 2 -3 -4 7 -8 9 -14 16 20 21 23 26 -27 29 31 34 -35 -36 37 40 -44 46 48 53 -55 56 57 60 -62 -65 68 70 71 74 75 78 79 -84 -86 -87 -88 -90 92 -93 96 -97 -103 104 105 106 107 -109 -111 113 114 -118 -126 127 128 131 132 -133 -135 137 -138 -139 -140 141 142 -143 -144 -146 148 -149 -150 0
x -4 5 -6 -7 -9 -10 -13 17 -21 -22 23 29 30 -31 -32 34 36 37 -38 -40 -41 44 -46 50 -52 -56 57 58 -59 -60 61 -63 -64 -66 -72 -77 -79 80 81 82 -83 86 -88 -89 94 -95 -97 101 103 -106 107 109 -110 -112 113 114 -118 -123 124 125 126 -130 -131 -132 133 -137 -138 -139 -140 -143 147 148 149 0
x -2 -5 6 7 8 10 -18 -19 20 -27 -28 31 -33 35 -36 39 -40 -42 -43 49 50 -51 52 53 -57 58 -60 -64 65 -67 -68 71 -72 -73 -74 -75 77 80 81 -82 -83 -84 85 -86 -89 -92 -93 94 97 98 -102 103 -109 -114 116 117 -119 -124 125 126 127 129 -130 -132 133 -135 140 -141 142 -145 146 -148 -149 150 0
x 1 2 -3 -5 -7 -8 10 12 -17 18 19 -20 21 -23 24 -27 -29 -30 34 35 36 37 39 41 -43 44 -45 46 48 -49 51 -54 -55 -56 57 -58 60 63 64 -66 69 -70 71 -72 73 77 -78 81 -84 -88 -89 91 94 95 96 -97 99 100 -102 105 -109 -110 111 -113 114 -116 -117 121 -122 125 -126 -129 -131 132 -135 -139 -140 -141 143 144 -145 -147 148 -149 0
x -1 2 4 6 -8 -10 11 12 13 17 -18 20 -21 -24 25 29 30 -31 32 -36 -37 -42 44 48 49 -52 53 54 -56 57 -59 -60 -61 -62 65 -68 -71 72 73 74 75 76 78 -79 -82 -84 85 87 88 -89 90 93 -94 -95 -97 -98 -99 -104 107 108 -109 110 113 114 117 118 119 -121 123 -124 -126 130 133 136 -137 143 -144 -147 150 0
x -1 -3 4 7 8 -11 12 14 -15 19 20 21 -23 27 -28 29 -30 -31 33 35 37 39 43 44 -46 48 -51 -53 -57 -65 -68 -69 71 73 75 76 -79 -80 82 83 85 87 88 -89 90 -93 95 97 -98 100 104 -105 -108 -112 113 -115 117 -119 120 -121 -123 -126 -129 130 -132 135 -136 -137 -138 -139 141 -146 -147 -149 0
x 2 -5 7 10 -11 12 -13 -14 -15 -16 17 -19 22 -26 -28 30 -35 37 41 42 -43 -45 -46 -48 50 -52 -53 54 -56 58 59 -60 61 -64 65 -66 67 72 73 -74 -75 -78 81 -83 -85 -86 -87 -90 -91 -93 95 -98 -101 102 103 -107 108 111 -112 115 116 -117 -118 121 -122 -123 130 131 -132 135 -138 -141 142 -143 -145 146 -148 -149 150 0
x -3 -4 -9 -11 -12 13 -16 17 18 22 -23 -24 25 27 28 29 -32 -34 -35 -36 38 39 41 -43 46 50 -52 -53 -56 58 60 62 -63 -64 -67 -68 69 70 -71 -75 76 78 80 -83 -87 90 91 92 94 -96 -98 99 -100 -102 105 108 -113 -118 119 -126 130 132 -134 135 138 140 -141 -144 146 0
x -3 -4 -6 -9 -11 12 14 17 -18 -20 21 24 -25 -27 28 30 -34 35 -36 -38 41 42 -43 -44 -45 46 47 48 -54 55 -57 -60 63 -64 66 -68 -70 71 -72 -75 76 -77 81 -82 -85 88 92 93 -94 96 -97 99 101 -103 104 -105 106 -109 111 112 113 -114 116 122 -123 124 -126 -127 128 129 130 -131 -134 135 -139 144 -147 149 0
